language ESSENCE' 1.0

letting fixed be 
[
    [0,6,3,8,2,0,0,0,0],
    [7,0,0,0,0,9,2,0,6],
    [2,1,9,0,0,7,3,8,0],
    [0,3,2,0,9,0,8,0,0],
    [9,0,0,0,0,0,0,0,2],
    [0,0,1,0,0,2,5,3,9],
    [1,2,4,9,7,8,6,5,3],
    [8,5,6,2,0,0,0,0,7],
    [3,9,7,0,4,0,1,2,8]
]